Route #1: 92 97 89 95 99 96 90 94
Route #2: 63 57 39 44 64
Route #3: 54 60 46 55 47 38 43 35 48 49 37 32 34 41 40 42 29 31 68 59 69
Route #4: 71 73 72 70 62
Route #5: 24 98 100 27
Route #6: 52 78 79 80 77 81 58 56 53
Route #7: 18 91 93 12
Route #8: 8 1 7 10 9 11 2 3 6 4 5 17
Route #9: 20 25 74 75 76 19 21
Route #10: 26 65 66 84 14 22
Route #11: 28 86 82 87 85 88 83 51 67 61 30 45 33 36 50
Route #12: 15 23 13 16
Cost 2032.2588420028396